<number of tasks>
50

<cycle time>
1000

<order strength>
0.595


<task times>
1 74
2 49
3 271
4 79
5 568
6 516
7 294
8 39
9 133
10 573
11 205
12 138
13 34
14 36
15 222
16 205
17 111
18 134
19 552
20 79
21 187
22 156
23 476
24 107
25 319
26 242
27 76
28 164
29 61
30 127
31 168
32 489
33 289
34 536
35 281
36 142
37 110
38 38
39 241
40 164
41 476
42 466
43 91
44 33
45 203
46 295
47 227
48 104
49 162
50 264

<precedence relations>
1,15
2,5
2,7
3,16
3,17
3,19
3,26
3,28
4,5
4,6
4,8
4,16
4,17
5,15
6,15
7,9
7,10
7,11
7,12
7,13
7,14
8,12
9,15
10,15
11,27
12,27
13,16
13,17
13,18
13,19
13,20
13,25
14,17
14,18
14,26
14,34
15,21
15,22
15,23
15,24
15,25
15,26
16,27
17,27
18,36
19,41
19,43
20,26
20,28
21,27
22,36
22,39
22,40
23,28
23,33
23,38
24,27
25,35
27,29
27,30
27,31
27,32
27,33
27,35
28,34
28,35
28,36
28,37
29,39
29,43
30,50
31,36
31,40
32,38
32,49
33,36
33,37
34,42
35,40
36,41
37,41
38,41
39,41
40,42
40,43
41,44
41,45
41,46
41,47
42,48
48,49
48,50

<end>
